5 5
5 4 5 3 3 11 4 6 1 10 3 1 9 2 10 3 2 5 4 2 1 10 3 20 5 20 2 13 2 5 6 1 3 4 4 9 3 16 5 12 2 5
4 5 5 8 4 3 1 3 3 3 2 15 2 5 4 1 11 2 4 4 2 14 1 2 9
7 1 5 8 3 1 14 5 18 2 5 2 5 8 4 4 5 2 17 3 2 4 6 5 16 1 9 1 2 15 3 5 12 2 4 1 8 4 4 13 2 9 5 11 3 14
7 1 4 4 2 1 15 4 9 2 5 8 1 11 5 5 13 3 20 4 7 1 12 2 14 5 2 9 1 11 5 15 4 14 3 18 4 5 6 2 15 1 8 3 8 1 3 20
4 4 3 7 1 7 2 6 5 14 3 4 18 5 19 2 16 4 1 11 5 15 4 9 2 19 2 2 10 4 9